p cnf 780
-21 -208
-22 -211
-23 -214
-24 -217
-25 -220
-26 -223
-27 -226
-28 -229
-29 -232
-30 -235
-31 -238
-32 -241
-33 -244
-34 -247
-35 -250
-36 -253
-37 -256
-38 -259
-39 -262
-40 -265
-41 -267
-42 -269
-43 -271
-44 -273
-45 -275
-46 -277
-47 -279
-48 -281
-49 -283
-50 -285
-51 -287
-52 -289
-53 -291
-54 -293
-55 -295
-56 -297
-57 -299
-58 -301
-59 -303
-60 -305
-61 306
-62 -37
-62 40
37 -40 62
-63 37
-63 -40
-37 40 63
-64 -62
-64 -63
62 63 64
-65 -1
-65 -2
1 2 65
-66 -3
-66 -4
3 4 66
-67 -5
-67 -6
5 6 67
-68 -7
-68 -8
7 8 68
-69 -9
-69 -10
9 10 69
-70 -11
-70 -12
11 12 70
-71 -13
-71 -14
13 14 71
-72 -15
-72 -16
15 16 72
-73 -17
-73 -18
17 18 73
-74 -19
-74 -20
19 20 74
-75 65
-75 66
-65 -66 75
-76 67
-76 68
-67 -68 76
-77 69
-77 70
-69 -70 77
-78 71
-78 72
-71 -72 78
-79 73
-79 74
-73 -74 79
-80 75
-80 76
-75 -76 80
-81 77
-81 78
-77 -78 81
-82 80
-82 81
-80 -81 82
-83 79
-83 82
-79 -82 83
-84 -41
-84 -42
41 42 84
-85 -43
-85 -44
43 44 85
-86 -45
-86 -46
45 46 86
-87 -47
-87 -48
47 48 87
-88 -49
-88 -50
49 50 88
-89 -51
-89 -52
51 52 89
-90 -53
-90 -54
53 54 90
-91 -55
-91 -56
55 56 91
-92 -57
-92 -58
57 58 92
-93 -59
-93 -60
59 60 93
-94 84
-94 85
-84 -85 94
-95 86
-95 87
-86 -87 95
-96 88
-96 89
-88 -89 96
-97 90
-97 91
-90 -91 97
-98 92
-98 93
-92 -93 98
-99 94
-99 95
-94 -95 99
-100 96
-100 97
-96 -97 100
-101 99
-101 100
-99 -100 101
-102 98
-102 101
-98 -101 102
-103 41
-103 -64
-41 64 103
-104 -41
-104 64
41 -64 104
-105 -103
-105 -104
103 104 105
-106 21
-106 42
-21 -42 106
-107 -21
-107 -42
21 42 107
-108 -106
-108 -107
106 107 108
-109 22
-109 43
-22 -43 109
-110 -22
-110 -43
22 43 110
-111 -109
-111 -110
109 110 111
-112 23
-112 44
-23 -44 112
-113 -23
-113 -44
23 44 113
-114 -112
-114 -113
112 113 114
-115 24
-115 45
-24 -45 115
-116 -24
-116 -45
24 45 116
-117 -115
-117 -116
115 116 117
-118 25
-118 46
-25 -46 118
-119 -25
-119 -46
25 46 119
-120 -118
-120 -119
118 119 120
-121 26
-121 47
-26 -47 121
-122 -26
-122 -47
26 47 122
-123 -121
-123 -122
121 122 123
-124 27
-124 48
-27 -48 124
-125 -27
-125 -48
27 48 125
-126 -124
-126 -125
124 125 126
-127 28
-127 49
-28 -49 127
-128 -28
-128 -49
28 49 128
-129 -127
-129 -128
127 128 129
-130 29
-130 50
-29 -50 130
-131 -29
-131 -50
29 50 131
-132 -130
-132 -131
130 131 132
-133 30
-133 51
-30 -51 133
-134 -30
-134 -51
30 51 134
-135 -133
-135 -134
133 134 135
-136 31
-136 52
-31 -52 136
-137 -31
-137 -52
31 52 137
-138 -136
-138 -137
136 137 138
-139 32
-139 53
-32 -53 139
-140 -32
-140 -53
32 53 140
-141 -139
-141 -140
139 140 141
-142 33
-142 54
-33 -54 142
-143 -33
-143 -54
33 54 143
-144 -142
-144 -143
142 143 144
-145 34
-145 55
-34 -55 145
-146 -34
-146 -55
34 55 146
-147 -145
-147 -146
145 146 147
-148 35
-148 56
-35 -56 148
-149 -35
-149 -56
35 56 149
-150 -148
-150 -149
148 149 150
-151 36
-151 57
-36 -57 151
-152 -36
-152 -57
36 57 152
-153 -151
-153 -152
151 152 153
-154 37
-154 58
-37 -58 154
-155 -37
-155 -58
37 58 155
-156 -154
-156 -155
154 155 156
-157 38
-157 59
-38 -59 157
-158 -38
-158 -59
38 59 158
-159 -157
-159 -158
157 158 159
-160 39
-160 60
-39 -60 160
-161 -39
-161 -60
39 60 161
-162 -160
-162 -161
160 161 162
-163 -105
-163 -108
105 108 163
-164 -111
-164 -114
111 114 164
-165 -117
-165 -120
117 120 165
-166 -123
-166 -126
123 126 166
-167 -129
-167 -132
129 132 167
-168 -135
-168 -138
135 138 168
-169 -141
-169 -144
141 144 169
-170 -147
-170 -150
147 150 170
-171 -153
-171 -156
153 156 171
-172 -159
-172 -162
159 162 172
-173 163
-173 164
-163 -164 173
-174 165
-174 166
-165 -166 174
-175 167
-175 168
-167 -168 175
-176 169
-176 170
-169 -170 176
-177 171
-177 172
-171 -172 177
-178 173
-178 174
-173 -174 178
-179 175
-179 176
-175 -176 179
-180 178
-180 179
-178 -179 180
-181 177
-181 180
-177 -180 181
-182 -102
-182 181
102 -181 182
-183 61
-183 182
-61 -182 183
-184 83
-184 183
-83 -183 184
-185 -21
-185 64
21 -64 185
-186 -22
-186 -23
22 23 186
-187 -24
-187 -25
24 25 187
-188 -26
-188 -27
26 27 188
-189 -28
-189 -29
28 29 189
-190 -30
-190 -31
30 31 190
-191 -32
-191 -33
32 33 191
-192 -34
-192 -35
34 35 192
-193 -36
-193 -37
36 37 193
-194 -38
-194 -39
38 39 194
-195 185
-195 186
-185 -186 195
-196 187
-196 188
-187 -188 196
-197 189
-197 190
-189 -190 197
-198 191
-198 192
-191 -192 198
-199 193
-199 194
-193 -194 199
-200 195
-200 196
-195 -196 200
-201 197
-201 198
-197 -198 201
-202 200
-202 201
-200 -201 202
-203 199
-203 202
-199 -202 203
-204 -102
-204 203
102 -203 204
-205 83
-205 -182
-83 182 205
-206 1
-206 -83
-1 83 206
-207 -64
-207 83
64 -83 207
-208 -206
-208 -207
206 207 208
-209 2
-209 -83
-2 83 209
-210 21
-210 83
-21 -83 210
-211 -209
-211 -210
209 210 211
-212 3
-212 -83
-3 83 212
-213 22
-213 83
-22 -83 213
-214 -212
-214 -213
212 213 214
-215 4
-215 -83
-4 83 215
-216 23
-216 83
-23 -83 216
-217 -215
-217 -216
215 216 217
-218 5
-218 -83
-5 83 218
-219 24
-219 83
-24 -83 219
-220 -218
-220 -219
218 219 220
-221 6
-221 -83
-6 83 221
-222 25
-222 83
-25 -83 222
-223 -221
-223 -222
221 222 223
-224 7
-224 -83
-7 83 224
-225 26
-225 83
-26 -83 225
-226 -224
-226 -225
224 225 226
-227 8
-227 -83
-8 83 227
-228 27
-228 83
-27 -83 228
-229 -227
-229 -228
227 228 229
-230 9
-230 -83
-9 83 230
-231 28
-231 83
-28 -83 231
-232 -230
-232 -231
230 231 232
-233 10
-233 -83
-10 83 233
-234 29
-234 83
-29 -83 234
-235 -233
-235 -234
233 234 235
-236 11
-236 -83
-11 83 236
-237 30
-237 83
-30 -83 237
-238 -236
-238 -237
236 237 238
-239 12
-239 -83
-12 83 239
-240 31
-240 83
-31 -83 240
-241 -239
-241 -240
239 240 241
-242 13
-242 -83
-13 83 242
-243 32
-243 83
-32 -83 243
-244 -242
-244 -243
242 243 244
-245 14
-245 -83
-14 83 245
-246 33
-246 83
-33 -83 246
-247 -245
-247 -246
245 246 247
-248 15
-248 -83
-15 83 248
-249 34
-249 83
-34 -83 249
-250 -248
-250 -249
248 249 250
-251 16
-251 -83
-16 83 251
-252 35
-252 83
-35 -83 252
-253 -251
-253 -252
251 252 253
-254 17
-254 -83
-17 83 254
-255 36
-255 83
-36 -83 255
-256 -254
-256 -255
254 255 256
-257 18
-257 -83
-18 83 257
-258 37
-258 83
-37 -83 258
-259 -257
-259 -258
257 258 259
-260 19
-260 -83
-19 83 260
-261 38
-261 83
-38 -83 261
-262 -260
-262 -261
260 261 262
-263 20
-263 -83
-20 83 263
-264 39
-264 83
-39 -83 264
-265 -263
-265 -264
263 264 265
-266 41
-266 83
-41 -83 266
-267 -206
-267 -266
206 266 267
-268 42
-268 83
-42 -83 268
-269 -209
-269 -268
209 268 269
-270 43
-270 83
-43 -83 270
-271 -212
-271 -270
212 270 271
-272 44
-272 83
-44 -83 272
-273 -215
-273 -272
215 272 273
-274 45
-274 83
-45 -83 274
-275 -218
-275 -274
218 274 275
-276 46
-276 83
-46 -83 276
-277 -221
-277 -276
221 276 277
-278 47
-278 83
-47 -83 278
-279 -224
-279 -278
224 278 279
-280 48
-280 83
-48 -83 280
-281 -227
-281 -280
227 280 281
-282 49
-282 83
-49 -83 282
-283 -230
-283 -282
230 282 283
-284 50
-284 83
-50 -83 284
-285 -233
-285 -284
233 284 285
-286 51
-286 83
-51 -83 286
-287 -236
-287 -286
236 286 287
-288 52
-288 83
-52 -83 288
-289 -239
-289 -288
239 288 289
-290 53
-290 83
-53 -83 290
-291 -242
-291 -290
242 290 291
-292 54
-292 83
-54 -83 292
-293 -245
-293 -292
245 292 293
-294 55
-294 83
-55 -83 294
-295 -248
-295 -294
248 294 295
-296 56
-296 83
-56 -83 296
-297 -251
-297 -296
251 296 297
-298 57
-298 83
-57 -83 298
-299 -254
-299 -298
254 298 299
-300 58
-300 83
-58 -83 300
-301 -257
-301 -300
257 300 301
-302 59
-302 83
-59 -83 302
-303 -260
-303 -302
260 302 303
-304 60
-304 83
-60 -83 304
-305 -263
-305 -304
263 304 305
-306 -61
-306 205
61 -205 306
-307 -184
-307 -204
184 204 307
-307
